10  5
 1  3  4  9  2 13  3 11  0  7   0 149  10
 0  3  1  5  2 16  3  7  4 10   0 149   5
 3  3  1  3  2  9  4  4  0  7   0 149  10
 1 10  0  6  2  8  4  4  3  9   0 149  10
 3  4  1 10  2 16  4 10  0  9   0 149  10
 0  5  4  4  2 10  3  7  1  4   0 149  10
 4  7  1  9  2 11  3  6  0  9   0 149   5
 4  5  1  5  2 12  0  8  3  3   0 149  10
 0  3  4  5  2 10  1  4  3  8   0 149  10
 0 11  3  6  2  9  1  4  4  3   0 149   5
